data/CVRPLIB/Vrp-Set-XML100/instances/XML100_1113_01.vrp
NAME : XML100_1113_01
COMMENT : Generated by Queiroga, Sadykov, Uchoa, and Vidal (2021)
TYPE : CVRP
DIMENSION : 101
EDGE_WEIGHT_TYPE : EUC_2D
CAPACITY : 11
NODE_COORD_SECTION
1    150  740 
2    434  25  
3    713  200 
4    425  362 
5    624  729 
6    388  406 
7    410  305 
8    62   548 
9    135  572 
10   986  558 
11   842  747 
12   273  426 
13   269  841 
14   940  247 
15   681  40  
16   195  765 
17   868  325 
18   541  681 
19   975  725 
20   468  843 
21   440  302 
22   699  298 
23   603  107 
24   806  396 
25   302  351 
26   270  83  
27   22   964 
28   303  817 
29   948  205 
30   196  874 
31   992  104 
32   362  203 
33   478  770 
34   818  891 
35   590  723 
36   79   677 
37   81   356 
38   516  992 
39   414  451 
40   422  735 
41   472  174 
42   650  542 
43   799  727 
44   564  819 
45   641  35  
46   534  631 
47   655  820 
48   52   231 
49   830  107 
50   822  699 
51   415  470 
52   722  966 
53   480  643 
54   570  838 
55   205  514 
56   221  554 
57   92   916 
58   114  62  
59   595  254 
60   719  429 
61   355  419 
62   364  859 
63   56   750 
64   230  706 
65   487  482 
66   647  10  
67   646  208 
68   292  768 
69   999  554 
70   663  541 
71   780  254 
72   502  747 
73   409  917 
74   549  124 
75   699  445 
76   62   474 
77   332  417 
78   866  991 
79   327  531 
80   681  13  
81   715  260 
82   705  562 
83   720  505 
84   858  141 
85   711  221 
86   412  121 
87   224  559 
88   517  601 
89   615  286 
90   427  394 
91   755  726 
92   336  734 
93   934  310 
94   941  859 
95   72   915 
96   254  816 
97   950  405 
98   277  980 
99   808  476 
100  633  41  
101  130  698 
DEMAND_SECTION
1    0   
2    1   
3    1   
4    1   
5    1   
6    1   
7    1   
8    1   
9    1   
10   1   
11   1   
12   1   
13   1   
14   1   
15   1   
16   1   
17   1   
18   1   
19   1   
20   1   
21   1   
22   1   
23   1   
24   1   
25   1   
26   1   
27   1   
28   1   
29   1   
30   1   
31   1   
32   1   
33   1   
34   1   
35   1   
36   1   
37   1   
38   1   
39   1   
40   1   
41   1   
42   1   
43   1   
44   1   
45   1   
46   1   
47   1   
48   1   
49   1   
50   1   
51   1   
52   1   
53   1   
54   1   
55   1   
56   1   
57   1   
58   1   
59   1   
60   1   
61   1   
62   1   
63   1   
64   1   
65   1   
66   1   
67   1   
68   1   
69   1   
70   1   
71   1   
72   1   
73   1   
74   1   
75   1   
76   1   
77   1   
78   1   
79   1   
80   1   
81   1   
82   1   
83   1   
84   1   
85   1   
86   1   
87   1   
88   1   
89   1   
90   1   
91   1   
92   1   
93   1   
94   1   
95   1   
96   1   
97   1   
98   1   
99   1   
100  1   
101  1   
DEPOT_SECTION
1
-1
EOF
