data/CVRPLIB/Vrp-Set-XML100/solutions/XML100_1113_01.sol
Route #1: 100
Route #2: 8 54 11 76 60 5 38 50 78 55 86
Route #3: 7 75 36 47 57 25 31 6 20 3 89
Route #4: 81 98 96 68 9 18 10 49 42 90 4
Route #5: 24 85 1 65 79 14 44 99 22 73 40
Route #6: 67 91 39 32 71 34 17 45 87 52 63
Route #7: 35 62 26 94 56 29 97 12 27 95 15
Route #8: 19 43 53 46 33 93 77 51 37 72 61
Route #9: 74 23 16 92 13 28 30 83 48 70 64
Route #10: 41 69 82 59 21 80 84 2 66 58 88
Cost 14740
